(set-logic QF_BV)
(declare-fun _substvar_58_ () (_ BitVec 63))
(declare-fun _substvar_83_ () (_ BitVec 63))
(declare-fun _substvar_88_ () (_ BitVec 63))
(declare-fun _substvar_143_ () Bool)
(declare-fun _substvar_92_ () (_ BitVec 63))
(assert (and true true true true true true true true true true true true true true true true true true true true true true true true true true true true true true true true true true true true true true true true true true true true true true true true true true true true true true true true true true true true true true true true true true true true true true true true true true true true true true true true true true true true true true true true true true true true true true true true true true true true true true true true true true true true true true true true true true true true true true true true true true true true (= _substvar_83_ (_ bv0 63)) (ite _substvar_143_ (= _substvar_88_ (_ bv0 63)) (= _substvar_88_ (concat ((_ extract 61 0) _substvar_83_) (_ bv0 1)))) (= _substvar_92_ (concat ((_ extract 61 0) _substvar_88_) (bvxor ((_ extract 62 62) _substvar_88_) ((_ extract 61 61) _substvar_88_)))) (= _substvar_58_ (concat ((_ extract 61 0) _substvar_92_) (_ bv0 1))) true true true (= (= (_ bv0 63) _substvar_58_) false)))
(check-sat)
(exit)
